14,7	0,0	16,7	18,5	0,0	0,0	0,0	0,0	0,0	13,8
12,1	8,1	0,0	16,8	9,7	0,0	0,0	13,7	0,0	0,0
0,0	0,0	16,4	0,0	18,6	15,6	0,0	0,0	17,8	0,0
13,4	0,0	9,9	0,0	0,0	0,0	19,1	0,0	0,0	0,0
0,0	5,3	0,0	8,1	9,0	0,0	0,0	16,7	0,0	0,0
0,0	11,1	7,0	0,0	19,6	10,8	0,0	0,0	8,1	0,0
0,0	6,3	0,0	18,9	0,0	0,0	15,2	0,0	0,0	8,3
7,1	0,0	14,4	0,0	0,0	0,0	0,0	0,0	0,0	15,2
0,0	18,7	0,0	7,8	7,6	0,0	0,0	10,1	0,0	0,0
0,0	0,0	6,4	0,0	0,0	5,1	10,6	0,0	0,0	18,7
									
3,3	4,4	3,0	4,7	4,9	2,9	3,8	3,0	2,8	3,2
